c generated by sgen
p cnf 49 108
-2 -3 -4 0
-1 -3 -4 0
-1 -2 -4 0
-1 -2 -3 0
-6 -7 -8 0
-5 -7 -8 0
-5 -6 -8 0
-5 -6 -7 0
-10 -11 -12 0
-9 -11 -12 0
-9 -10 -12 0
-9 -10 -11 0
-14 -15 -16 0
-13 -15 -16 0
-13 -14 -16 0
-13 -14 -15 0
-18 -19 -20 0
-17 -19 -20 0
-17 -18 -20 0
-17 -18 -19 0
-22 -23 -24 0
-21 -23 -24 0
-21 -22 -24 0
-21 -22 -23 0
-26 -27 -28 0
-25 -27 -28 0
-25 -26 -28 0
-25 -26 -27 0
-30 -31 -32 0
-29 -31 -32 0
-29 -30 -32 0
-29 -30 -31 0
-34 -35 -36 0
-33 -35 -36 0
-33 -34 -36 0
-33 -34 -35 0
-38 -39 -40 0
-37 -39 -40 0
-37 -38 -40 0
-37 -38 -39 0
-42 -43 -44 0
-41 -43 -44 0
-41 -42 -44 0
-41 -42 -43 0
-45 -46 -47 0
-45 -46 -48 0
-45 -46 -49 0
-45 -47 -48 0
-45 -47 -49 0
-45 -48 -49 0
-46 -47 -48 0
-46 -47 -49 0
-46 -48 -49 0
-47 -48 -49 0
19 45 44 0
25 45 44 0
25 19 44 0
25 19 45 0
36 26 39 0
13 26 39 0
13 36 39 0
13 36 26 0
30 10 7 0
27 10 7 0
27 30 7 0
27 30 10 0
31 1 40 0
48 1 40 0
48 31 40 0
48 31 1 0
47 5 22 0
35 5 22 0
35 47 22 0
35 47 5 0
46 14 21 0
12 14 21 0
12 46 21 0
12 46 14 0
15 3 18 0
6 3 18 0
6 15 18 0
6 15 3 0
38 16 8 0
41 16 8 0
41 38 8 0
41 38 16 0
9 42 4 0
34 42 4 0
34 9 4 0
34 9 42 0
20 33 49 0
29 33 49 0
29 20 49 0
29 20 33 0
37 11 23 0
17 11 23 0
17 37 23 0
17 37 11 0
43 24 2 0
43 24 32 0
43 24 28 0
43 2 32 0
43 2 28 0
43 32 28 0
24 2 32 0
24 2 28 0
24 32 28 0
2 32 28 0
